p cnf 1504
-22 -470
-23 -473
-24 -476
-25 -479
-26 -482
-27 -485
-28 -488
-29 -491
-30 -494
-31 -497
-32 -500
-33 -503
-34 -506
-35 -509
-36 -512
-37 -515
-38 -518
-39 -521
-40 -524
-41 -527
-42 -530
-43 531
-44 532
-45 533
-46 534
-47 535
-48 536
-49 537
-50 538
-51 539
-52 540
-53 541
-54 542
-55 -23
-55 -24
23 24 55
-56 -25
-56 -26
25 26 56
-57 -27
-57 -28
27 28 57
-58 -29
-58 -30
29 30 58
-59 -31
-59 -32
31 32 59
-60 -33
-60 -34
33 34 60
-61 -35
-61 -36
35 36 61
-62 -37
-62 -38
37 38 62
-63 -39
-63 -40
39 40 63
-64 -41
-64 -42
41 42 64
-65 -43
-65 -44
43 44 65
-66 -45
-66 -46
45 46 66
-67 -47
-67 -48
47 48 67
-68 -49
-68 -50
49 50 68
-69 -51
-69 -52
51 52 69
-70 -53
-70 -54
53 54 70
-71 55
-71 56
-55 -56 71
-72 57
-72 58
-57 -58 72
-73 59
-73 60
-59 -60 73
-74 61
-74 62
-61 -62 74
-75 63
-75 64
-63 -64 75
-76 65
-76 66
-65 -66 76
-77 67
-77 68
-67 -68 77
-78 69
-78 70
-69 -70 78
-79 71
-79 72
-71 -72 79
-80 73
-80 74
-73 -74 80
-81 75
-81 76
-75 -76 81
-82 77
-82 78
-77 -78 82
-83 79
-83 80
-79 -80 83
-84 81
-84 82
-81 -82 84
-85 83
-85 84
-83 -84 85
-86 -22
-86 23
22 -23 86
-87 22
-87 -23
-22 23 87
-88 -86
-88 -87
86 87 88
-89 22
-89 23
-22 -23 89
-90 -22
-90 -88
22 88 90
-91 22
-91 88
-22 -88 91
-92 -90
-92 -91
90 91 92
-93 22
-93 -88
-22 88 93
-94 -89
-94 -93
89 93 94
-95 -23
-95 24
23 -24 95
-96 23
-96 -24
-23 24 96
-97 -95
-97 -96
95 96 97
-98 23
-98 24
-23 -24 98
-99 94
-99 -97
-94 97 99
-100 -94
-100 97
94 -97 100
-101 -99
-101 -100
99 100 101
-102 -94
-102 -97
94 97 102
-103 -98
-103 -102
98 102 103
-104 -24
-104 25
24 -25 104
-105 24
-105 -25
-24 25 105
-106 -104
-106 -105
104 105 106
-107 24
-107 25
-24 -25 107
-108 103
-108 -106
-103 106 108
-109 -103
-109 106
103 -106 109
-110 -108
-110 -109
108 109 110
-111 -103
-111 -106
103 106 111
-112 -107
-112 -111
107 111 112
-113 -25
-113 26
25 -26 113
-114 25
-114 -26
-25 26 114
-115 -113
-115 -114
113 114 115
-116 25
-116 26
-25 -26 116
-117 112
-117 -115
-112 115 117
-118 -112
-118 115
112 -115 118
-119 -117
-119 -118
117 118 119
-120 -112
-120 -115
112 115 120
-121 -116
-121 -120
116 120 121
-122 -26
-122 27
26 -27 122
-123 26
-123 -27
-26 27 123
-124 -122
-124 -123
122 123 124
-125 26
-125 27
-26 -27 125
-126 121
-126 -124
-121 124 126
-127 -121
-127 124
121 -124 127
-128 -126
-128 -127
126 127 128
-129 -121
-129 -124
121 124 129
-130 -125
-130 -129
125 129 130
-131 -27
-131 28
27 -28 131
-132 27
-132 -28
-27 28 132
-133 -131
-133 -132
131 132 133
-134 27
-134 28
-27 -28 134
-135 130
-135 -133
-130 133 135
-136 -130
-136 133
130 -133 136
-137 -135
-137 -136
135 136 137
-138 -130
-138 -133
130 133 138
-139 -134
-139 -138
134 138 139
-140 -28
-140 29
28 -29 140
-141 28
-141 -29
-28 29 141
-142 -140
-142 -141
140 141 142
-143 28
-143 29
-28 -29 143
-144 139
-144 -142
-139 142 144
-145 -139
-145 142
139 -142 145
-146 -144
-146 -145
144 145 146
-147 -139
-147 -142
139 142 147
-148 -143
-148 -147
143 147 148
-149 -29
-149 30
29 -30 149
-150 29
-150 -30
-29 30 150
-151 -149
-151 -150
149 150 151
-152 29
-152 30
-29 -30 152
-153 148
-153 -151
-148 151 153
-154 -148
-154 151
148 -151 154
-155 -153
-155 -154
153 154 155
-156 -148
-156 -151
148 151 156
-157 -152
-157 -156
152 156 157
-158 -30
-158 31
30 -31 158
-159 30
-159 -31
-30 31 159
-160 -158
-160 -159
158 159 160
-161 30
-161 31
-30 -31 161
-162 157
-162 -160
-157 160 162
-163 -157
-163 160
157 -160 163
-164 -162
-164 -163
162 163 164
-165 -157
-165 -160
157 160 165
-166 -161
-166 -165
161 165 166
-167 -31
-167 32
31 -32 167
-168 31
-168 -32
-31 32 168
-169 -167
-169 -168
167 168 169
-170 31
-170 32
-31 -32 170
-171 166
-171 -169
-166 169 171
-172 -166
-172 169
166 -169 172
-173 -171
-173 -172
171 172 173
-174 -166
-174 -169
166 169 174
-175 -170
-175 -174
170 174 175
-176 -32
-176 33
32 -33 176
-177 32
-177 -33
-32 33 177
-178 -176
-178 -177
176 177 178
-179 32
-179 33
-32 -33 179
-180 175
-180 -178
-175 178 180
-181 -175
-181 178
175 -178 181
-182 -180
-182 -181
180 181 182
-183 -175
-183 -178
175 178 183
-184 -179
-184 -183
179 183 184
-185 -33
-185 34
33 -34 185
-186 33
-186 -34
-33 34 186
-187 -185
-187 -186
185 186 187
-188 33
-188 34
-33 -34 188
-189 184
-189 -187
-184 187 189
-190 -184
-190 187
184 -187 190
-191 -189
-191 -190
189 190 191
-192 -184
-192 -187
184 187 192
-193 -188
-193 -192
188 192 193
-194 -34
-194 35
34 -35 194
-195 34
-195 -35
-34 35 195
-196 -194
-196 -195
194 195 196
-197 34
-197 35
-34 -35 197
-198 193
-198 -196
-193 196 198
-199 -193
-199 196
193 -196 199
-200 -198
-200 -199
198 199 200
-201 -193
-201 -196
193 196 201
-202 -197
-202 -201
197 201 202
-203 -35
-203 36
35 -36 203
-204 35
-204 -36
-35 36 204
-205 -203
-205 -204
203 204 205
-206 35
-206 36
-35 -36 206
-207 202
-207 -205
-202 205 207
-208 -202
-208 205
202 -205 208
-209 -207
-209 -208
207 208 209
-210 -202
-210 -205
202 205 210
-211 -206
-211 -210
206 210 211
-212 -36
-212 37
36 -37 212
-213 36
-213 -37
-36 37 213
-214 -212
-214 -213
212 213 214
-215 36
-215 37
-36 -37 215
-216 211
-216 -214
-211 214 216
-217 -211
-217 214
211 -214 217
-218 -216
-218 -217
216 217 218
-219 -211
-219 -214
211 214 219
-220 -215
-220 -219
215 219 220
-221 -37
-221 38
37 -38 221
-222 37
-222 -38
-37 38 222
-223 -221
-223 -222
221 222 223
-224 37
-224 38
-37 -38 224
-225 220
-225 -223
-220 223 225
-226 -220
-226 223
220 -223 226
-227 -225
-227 -226
225 226 227
-228 -220
-228 -223
220 223 228
-229 -224
-229 -228
224 228 229
-230 -38
-230 39
38 -39 230
-231 38
-231 -39
-38 39 231
-232 -230
-232 -231
230 231 232
-233 38
-233 39
-38 -39 233
-234 229
-234 -232
-229 232 234
-235 -229
-235 232
229 -232 235
-236 -234
-236 -235
234 235 236
-237 -229
-237 -232
229 232 237
-238 -233
-238 -237
233 237 238
-239 -39
-239 40
39 -40 239
-240 39
-240 -40
-39 40 240
-241 -239
-241 -240
239 240 241
-242 39
-242 40
-39 -40 242
-243 238
-243 -241
-238 241 243
-244 -238
-244 241
238 -241 244
-245 -243
-245 -244
243 244 245
-246 -238
-246 -241
238 241 246
-247 -242
-247 -246
242 246 247
-248 -40
-248 41
40 -41 248
-249 40
-249 -41
-40 41 249
-250 -248
-250 -249
248 249 250
-251 40
-251 41
-40 -41 251
-252 247
-252 -250
-247 250 252
-253 -247
-253 250
247 -250 253
-254 -252
-254 -253
252 253 254
-255 -247
-255 -250
247 250 255
-256 -251
-256 -255
251 255 256
-257 -41
-257 42
41 -42 257
-258 41
-258 -42
-41 42 258
-259 -257
-259 -258
257 258 259
-260 41
-260 42
-41 -42 260
-261 256
-261 -259
-256 259 261
-262 -256
-262 259
256 -259 262
-263 -261
-263 -262
261 262 263
-264 -256
-264 -259
256 259 264
-265 -260
-265 -264
260 264 265
-266 -42
-266 43
42 -43 266
-267 42
-267 -43
-42 43 267
-268 -266
-268 -267
266 267 268
-269 42
-269 43
-42 -43 269
-270 265
-270 -268
-265 268 270
-271 -265
-271 268
265 -268 271
-272 -270
-272 -271
270 271 272
-273 -265
-273 -268
265 268 273
-274 -269
-274 -273
269 273 274
-275 -43
-275 44
43 -44 275
-276 43
-276 -44
-43 44 276
-277 -275
-277 -276
275 276 277
-278 43
-278 44
-43 -44 278
-279 274
-279 -277
-274 277 279
-280 -274
-280 277
274 -277 280
-281 -279
-281 -280
279 280 281
-282 -274
-282 -277
274 277 282
-283 -278
-283 -282
278 282 283
-284 -44
-284 45
44 -45 284
-285 44
-285 -45
-44 45 285
-286 -284
-286 -285
284 285 286
-287 44
-287 45
-44 -45 287
-288 283
-288 -286
-283 286 288
-289 -283
-289 286
283 -286 289
-290 -288
-290 -289
288 289 290
-291 -283
-291 -286
283 286 291
-292 -287
-292 -291
287 291 292
-293 -45
-293 46
45 -46 293
-294 45
-294 -46
-45 46 294
-295 -293
-295 -294
293 294 295
-296 45
-296 46
-45 -46 296
-297 292
-297 -295
-292 295 297
-298 -292
-298 295
292 -295 298
-299 -297
-299 -298
297 298 299
-300 -292
-300 -295
292 295 300
-301 -296
-301 -300
296 300 301
-302 -46
-302 47
46 -47 302
-303 46
-303 -47
-46 47 303
-304 -302
-304 -303
302 303 304
-305 46
-305 47
-46 -47 305
-306 301
-306 -304
-301 304 306
-307 -301
-307 304
301 -304 307
-308 -306
-308 -307
306 307 308
-309 -301
-309 -304
301 304 309
-310 -305
-310 -309
305 309 310
-311 -47
-311 48
47 -48 311
-312 47
-312 -48
-47 48 312
-313 -311
-313 -312
311 312 313
-314 47
-314 48
-47 -48 314
-315 310
-315 -313
-310 313 315
-316 -310
-316 313
310 -313 316
-317 -315
-317 -316
315 316 317
-318 -310
-318 -313
310 313 318
-319 -314
-319 -318
314 318 319
-320 -48
-320 49
48 -49 320
-321 48
-321 -49
-48 49 321
-322 -320
-322 -321
320 321 322
-323 48
-323 49
-48 -49 323
-324 319
-324 -322
-319 322 324
-325 -319
-325 322
319 -322 325
-326 -324
-326 -325
324 325 326
-327 -319
-327 -322
319 322 327
-328 -323
-328 -327
323 327 328
-329 -49
-329 50
49 -50 329
-330 49
-330 -50
-49 50 330
-331 -329
-331 -330
329 330 331
-332 49
-332 50
-49 -50 332
-333 328
-333 -331
-328 331 333
-334 -328
-334 331
328 -331 334
-335 -333
-335 -334
333 334 335
-336 -328
-336 -331
328 331 336
-337 -332
-337 -336
332 336 337
-338 -50
-338 51
50 -51 338
-339 50
-339 -51
-50 51 339
-340 -338
-340 -339
338 339 340
-341 50
-341 51
-50 -51 341
-342 337
-342 -340
-337 340 342
-343 -337
-343 340
337 -340 343
-344 -342
-344 -343
342 343 344
-345 -337
-345 -340
337 340 345
-346 -341
-346 -345
341 345 346
-347 -51
-347 52
51 -52 347
-348 51
-348 -52
-51 52 348
-349 -347
-349 -348
347 348 349
-350 51
-350 52
-51 -52 350
-351 346
-351 -349
-346 349 351
-352 -346
-352 349
346 -349 352
-353 -351
-353 -352
351 352 353
-354 -346
-354 -349
346 349 354
-355 -350
-355 -354
350 354 355
-356 -52
-356 53
52 -53 356
-357 52
-357 -53
-52 53 357
-358 -356
-358 -357
356 357 358
-359 52
-359 53
-52 -53 359
-360 355
-360 -358
-355 358 360
-361 -355
-361 358
355 -358 361
-362 -360
-362 -361
360 361 362
-363 -355
-363 -358
355 358 363
-364 -359
-364 -363
359 363 364
-365 -53
-365 54
53 -54 365
-366 53
-366 -54
-53 54 366
-367 -365
-367 -366
365 366 367
-368 53
-368 54
-53 -54 368
-369 364
-369 -367
-364 367 369
-370 -364
-370 367
364 -367 370
-371 -369
-371 -370
369 370 371
-372 -364
-372 -367
364 367 372
-373 -368
-373 -372
368 372 373
-374 22
-374 -92
-22 92 374
-375 -22
-375 24
22 -24 375
-376 -374
-376 -375
374 375 376
-377 22
-377 -101
-22 101 377
-378 -22
-378 25
22 -25 378
-379 -377
-379 -378
377 378 379
-380 22
-380 -110
-22 110 380
-381 -22
-381 26
22 -26 381
-382 -380
-382 -381
380 381 382
-383 22
-383 -119
-22 119 383
-384 -22
-384 27
22 -27 384
-385 -383
-385 -384
383 384 385
-386 22
-386 -128
-22 128 386
-387 -22
-387 28
22 -28 387
-388 -386
-388 -387
386 387 388
-389 22
-389 -137
-22 137 389
-390 -22
-390 29
22 -29 390
-391 -389
-391 -390
389 390 391
-392 22
-392 -146
-22 146 392
-393 -22
-393 30
22 -30 393
-394 -392
-394 -393
392 393 394
-395 22
-395 -155
-22 155 395
-396 -22
-396 31
22 -31 396
-397 -395
-397 -396
395 396 397
-398 22
-398 -164
-22 164 398
-399 -22
-399 32
22 -32 399
-400 -398
-400 -399
398 399 400
-401 22
-401 -173
-22 173 401
-402 -22
-402 33
22 -33 402
-403 -401
-403 -402
401 402 403
-404 22
-404 -182
-22 182 404
-405 -22
-405 34
22 -34 405
-406 -404
-406 -405
404 405 406
-407 22
-407 -191
-22 191 407
-408 -22
-408 35
22 -35 408
-409 -407
-409 -408
407 408 409
-410 22
-410 -200
-22 200 410
-411 -22
-411 36
22 -36 411
-412 -410
-412 -411
410 411 412
-413 22
-413 -209
-22 209 413
-414 -22
-414 37
22 -37 414
-415 -413
-415 -414
413 414 415
-416 22
-416 -218
-22 218 416
-417 -22
-417 38
22 -38 417
-418 -416
-418 -417
416 417 418
-419 22
-419 -227
-22 227 419
-420 -22
-420 39
22 -39 420
-421 -419
-421 -420
419 420 421
-422 22
-422 -236
-22 236 422
-423 -22
-423 40
22 -40 423
-424 -422
-424 -423
422 423 424
-425 22
-425 -245
-22 245 425
-426 -22
-426 41
22 -41 426
-427 -425
-427 -426
425 426 427
-428 22
-428 -254
-22 254 428
-429 -22
-429 42
22 -42 429
-430 -428
-430 -429
428 429 430
-431 22
-431 -263
-22 263 431
-432 -22
-432 43
22 -43 432
-433 -431
-433 -432
431 432 433
-434 22
-434 -272
-22 272 434
-435 -22
-435 44
22 -44 435
-436 -434
-436 -435
434 435 436
-437 22
-437 -281
-22 281 437
-438 -22
-438 45
22 -45 438
-439 -437
-439 -438
437 438 439
-440 22
-440 -290
-22 290 440
-441 -22
-441 46
22 -46 441
-442 -440
-442 -441
440 441 442
-443 22
-443 -299
-22 299 443
-444 -22
-444 47
22 -47 444
-445 -443
-445 -444
443 444 445
-446 22
-446 -308
-22 308 446
-447 -22
-447 48
22 -48 447
-448 -446
-448 -447
446 447 448
-449 22
-449 -317
-22 317 449
-450 -22
-450 49
22 -49 450
-451 -449
-451 -450
449 450 451
-452 22
-452 -326
-22 326 452
-453 -22
-453 50
22 -50 453
-454 -452
-454 -453
452 453 454
-455 22
-455 -335
-22 335 455
-456 -22
-456 51
22 -51 456
-457 -455
-457 -456
455 456 457
-458 22
-458 -344
-22 344 458
-459 -22
-459 52
22 -52 459
-460 -458
-460 -459
458 459 460
-461 22
-461 -353
-22 353 461
-462 -22
-462 53
22 -53 462
-463 -461
-463 -462
461 462 463
-464 22
-464 -362
-22 362 464
-465 -22
-465 54
22 -54 465
-466 -464
-466 -465
464 465 466
-467 22
-467 -371
-22 371 467
-468 1
-468 85
-1 -85 468
-469 -85
-469 86
85 -86 469
-470 -468
-470 -469
468 469 470
-471 2
-471 85
-2 -85 471
-472 -85
-472 -376
85 376 472
-473 -471
-473 -472
471 472 473
-474 3
-474 85
-3 -85 474
-475 -85
-475 -379
85 379 475
-476 -474
-476 -475
474 475 476
-477 4
-477 85
-4 -85 477
-478 -85
-478 -382
85 382 478
-479 -477
-479 -478
477 478 479
-480 5
-480 85
-5 -85 480
-481 -85
-481 -385
85 385 481
-482 -480
-482 -481
480 481 482
-483 6
-483 85
-6 -85 483
-484 -85
-484 -388
85 388 484
-485 -483
-485 -484
483 484 485
-486 7
-486 85
-7 -85 486
-487 -85
-487 -391
85 391 487
-488 -486
-488 -487
486 487 488
-489 8
-489 85
-8 -85 489
-490 -85
-490 -394
85 394 490
-491 -489
-491 -490
489 490 491
-492 9
-492 85
-9 -85 492
-493 -85
-493 -397
85 397 493
-494 -492
-494 -493
492 493 494
-495 10
-495 85
-10 -85 495
-496 -85
-496 -400
85 400 496
-497 -495
-497 -496
495 496 497
-498 11
-498 85
-11 -85 498
-499 -85
-499 -403
85 403 499
-500 -498
-500 -499
498 499 500
-501 12
-501 85
-12 -85 501
-502 -85
-502 -406
85 406 502
-503 -501
-503 -502
501 502 503
-504 13
-504 85
-13 -85 504
-505 -85
-505 -409
85 409 505
-506 -504
-506 -505
504 505 506
-507 14
-507 85
-14 -85 507
-508 -85
-508 -412
85 412 508
-509 -507
-509 -508
507 508 509
-510 15
-510 85
-15 -85 510
-511 -85
-511 -415
85 415 511
-512 -510
-512 -511
510 511 512
-513 16
-513 85
-16 -85 513
-514 -85
-514 -418
85 418 514
-515 -513
-515 -514
513 514 515
-516 17
-516 85
-17 -85 516
-517 -85
-517 -421
85 421 517
-518 -516
-518 -517
516 517 518
-519 18
-519 85
-18 -85 519
-520 -85
-520 -424
85 424 520
-521 -519
-521 -520
519 520 521
-522 19
-522 85
-19 -85 522
-523 -85
-523 -427
85 427 523
-524 -522
-524 -523
522 523 524
-525 20
-525 85
-20 -85 525
-526 -85
-526 -430
85 430 526
-527 -525
-527 -526
525 526 527
-528 21
-528 85
-21 -85 528
-529 -85
-529 -433
85 433 529
-530 -528
-530 -529
528 529 530
-531 -85
-531 -436
85 436 531
-532 -85
-532 -439
85 439 532
-533 -85
-533 -442
85 442 533
-534 -85
-534 -445
85 445 534
-535 -85
-535 -448
85 448 535
-536 -85
-536 -451
85 451 536
-537 -85
-537 -454
85 454 537
-538 -85
-538 -457
85 457 538
-539 -85
-539 -460
85 460 539
-540 -85
-540 -463
85 463 540
-541 -85
-541 -466
85 466 541
-542 -85
-542 467
85 -467 542
-543 -54
-543 373
54 -373 543
-544 22
-544 -543
-22 543 544
544
